NAME : RC2_4_1
TYPE : VRPSPD
DIMENSION : 401
VEHICLES : 11
CAPACITY : 1000
DISTANCE : 999999
SCALE : 1000
EDGE_WEIGHT_TYPE : EXACT_2D
NODE_COORD_SECTION
1 100 100
2 121 46
3 134 6
4 63 58
5 64 52
6 139 7
7 110 8
8 79 193
9 80 190
10 158 81
11 60 153
12 141 8
13 13 81
14 68 115
15 151 132
16 88 143
17 16 84
18 155 17
19 69 150
20 55 87
21 22 133
22 10 20
23 187 142
24 114 122
25 78 119
26 199 115
27 185 124
28 46 22
29 7 152
30 144 92
31 5 162
32 197 113
33 189 95
34 84 118
35 28 77
36 105 26
37 113 100
38 139 97
39 143 179
40 111 189
41 119 37
42 87 191
43 80 167
44 23 137
45 181 70
46 178 123
47 45 142
48 151 66
49 68 50
50 159 196
51 87 30
52 187 92
53 10 153
54 54 30
55 54 37
56 180 147
57 154 59
58 93 13
59 38 190
60 104 88
61 78 169
62 127 143
63 24 131
64 82 194
65 165 117
66 23 176
67 55 24
68 148 157
69 186 91
70 26 138
71 78 184
72 165 181
73 11 151
74 103 66
75 188 125
76 197 140
77 100 70
78 83 118
79 66 58
80 83 188
81 12 154
82 158 20
83 161 158
84 41 186
85 162 162
86 89 176
87 86 69
88 20 72
89 41 182
90 178 147
91 140 11
92 60 51
93 100 6
94 18 89
95 85 110
96 37 146
97 181 89
98 26 147
99 52 38
100 131 136
101 46 131
102 35 160
103 187 97
104 172 179
105 156 93
106 85 164
107 17 32
108 175 60
109 82 48
110 62 50
111 137 1
112 140 4
113 143 0
114 198 132
115 25 146
116 137 10
117 15 88
118 38 183
119 121 48
120 62 15
121 19 38
122 144 59
123 125 78
124 12 156
125 53 29
126 22 61
127 159 121
128 59 83
129 59 57
130 168 58
131 12 85
132 85 193
133 155 107
134 195 132
135 55 51
136 189 120
137 59 139
138 121 50
139 10 67
140 52 28
141 17 150
142 101 67
143 69 47
144 164 113
145 79 115
146 80 108
147 184 116
148 27 135
149 29 139
150 84 194
151 186 94
152 114 72
153 90 4
154 41 187
155 92 178
156 46 40
157 174 128
158 30 142
159 28 193
160 185 96
161 74 55
162 23 123
163 103 70
164 42 174
165 8 8
166 83 81
167 57 54
168 26 45
169 83 180
170 70 37
171 97 65
172 53 31
173 179 141
174 100 53
175 55 64
176 8 71
177 174 185
178 176 144
179 123 36
180 142 60
181 53 61
182 62 38
183 123 33
184 136 111
185 28 160
186 85 85
187 12 66
188 107 96
189 168 119
190 171 36
191 188 88
192 135 45
193 26 41
194 195 129
195 108 141
196 75 134
197 141 4
198 60 58
199 196 137
200 7 142
201 190 112
202 63 192
203 97 129
204 71 131
205 159 105
206 109 48
207 189 83
208 142 27
209 68 40
210 56 90
211 98 193
212 121 36
213 101 70
214 134 157
215 103 77
216 87 117
217 183 170
218 193 12
219 127 60
220 178 140
221 95 50
222 25 165
223 124 191
224 138 69
225 177 145
226 50 31
227 37 177
228 48 30
229 197 29
230 40 130
231 23 168
232 24 140
233 20 59
234 81 183
235 190 109
236 28 187
237 145 19
238 164 37
239 186 96
240 105 70
241 140 6
242 146 166
243 56 148
244 66 52
245 53 59
246 179 5
247 122 58
248 37 190
249 155 22
250 175 143
251 199 132
252 131 92
253 83 197
254 180 66
255 87 195
256 129 176
257 185 123
258 77 115
259 7 119
260 195 97
261 162 118
262 196 111
263 32 47
264 100 144
265 13 152
266 192 113
267 25 143
268 51 31
269 14 84
270 12 69
271 165 113
272 138 72
273 135 0
274 8 89
275 110 110
276 177 146
277 87 196
278 89 39
279 65 77
280 63 149
281 143 5
282 32 178
283 193 111
284 162 123
285 67 127
286 73 81
287 50 67
288 38 188
289 183 120
290 129 38
291 35 186
292 180 93
293 146 3
294 8 154
295 200 162
296 8 69
297 131 38
298 78 115
299 123 31
300 39 151
301 53 175
302 1 54
303 40 95
304 5 73
305 7 151
306 166 117
307 39 186
308 165 116
309 99 12
310 48 106
311 154 7
312 18 35
313 135 171
314 11 118
315 78 72
316 19 51
317 69 133
318 56 59
319 99 45
320 103 67
321 53 79
322 194 112
323 42 165
324 68 156
325 172 114
326 98 4
327 104 176
328 200 136
329 21 85
330 67 138
331 111 129
332 97 7
333 114 112
334 125 49
335 75 173
336 42 72
337 53 180
338 174 194
339 39 112
340 6 193
341 6 67
342 14 92
343 3 75
344 23 142
345 57 118
346 65 53
347 140 3
348 187 112
349 112 6
350 63 55
351 104 68
352 30 187
353 194 129
354 53 67
355 186 65
356 12 131
357 122 37
358 36 193
359 113 105
360 84 180
361 136 90
362 61 50
363 97 67
364 190 110
365 87 118
366 137 4
367 179 151
368 189 97
369 15 87
370 157 142
371 138 61
372 65 42
373 60 184
374 85 192
375 93 7
376 95 16
377 125 38
378 149 78
379 185 115
380 158 132
381 29 121
382 122 13
383 57 157
384 8 73
385 115 75
386 41 43
387 104 5
388 172 55
389 184 140
390 12 113
391 40 183
392 193 131
393 129 40
394 84 192
395 95 74
396 8 74
397 181 147
398 17 93
399 66 196
400 123 90
401 110 184
PICKUP_AND_DELIVERY_SECTION
1 0 0 10000000 0 0 0
2 0 0 10000000 0 40 3
3 0 0 10000000 0 45 20
4 0 0 10000000 0 41 20
5 0 0 10000000 0 44 20
6 0 0 10000000 0 32 20
7 0 0 10000000 0 44 26
8 0 0 10000000 0 13 30
9 0 0 10000000 0 8 13
10 0 0 10000000 0 14 23
11 0 0 10000000 0 25 11
12 0 0 10000000 0 43 20
13 0 0 10000000 0 3 30
14 0 0 10000000 0 1 20
15 0 0 10000000 0 23 6
16 0 0 10000000 0 36 17
17 0 0 10000000 0 25 20
18 0 0 10000000 0 48 32
19 0 0 10000000 0 19 17
20 0 0 10000000 0 30 30
21 0 0 10000000 0 49 10
22 0 0 10000000 0 26 14
23 0 0 10000000 0 2 10
24 0 0 10000000 0 1 10
25 0 0 10000000 0 43 30
26 0 0 10000000 0 39 20
27 0 0 10000000 0 12 10
28 0 0 10000000 0 12 10
29 0 0 10000000 0 1 10
30 0 0 10000000 0 3 23
31 0 0 10000000 0 19 26
32 0 0 10000000 0 48 20
33 0 0 10000000 0 29 10
34 0 0 10000000 0 23 20
35 0 0 10000000 0 27 12
36 0 0 10000000 0 10 24
37 0 0 10000000 0 50 5
38 0 0 10000000 0 10 4
39 0 0 10000000 0 28 24
40 0 0 10000000 0 34 3
41 0 0 10000000 0 2 20
42 0 0 10000000 0 41 10
43 0 0 10000000 0 28 10
44 0 0 10000000 0 24 20
45 0 0 10000000 0 6 25
46 0 0 10000000 0 32 30
47 0 0 10000000 0 30 15
48 0 0 10000000 0 3 11
49 0 0 10000000 0 50 10
50 0 0 10000000 0 7 6
51 0 0 10000000 0 43 10
52 0 0 10000000 0 32 20
53 0 0 10000000 0 3 20
54 0 0 10000000 0 44 10
55 0 0 10000000 0 10 21
56 0 0 10000000 0 37 10
57 0 0 10000000 0 28 17
58 0 0 10000000 0 24 30
59 0 0 10000000 0 49 10
60 0 0 10000000 0 16 25
61 0 0 10000000 0 27 10
62 0 0 10000000 0 33 7
63 0 0 10000000 0 42 31
64 0 0 10000000 0 36 10
65 0 0 10000000 0 7 10
66 0 0 10000000 0 4 20
67 0 0 10000000 0 20 10
68 0 0 10000000 0 21 21
69 0 0 10000000 0 46 10
70 0 0 10000000 0 43 10
71 0 0 10000000 0 14 20
72 0 0 10000000 0 23 22
73 0 0 10000000 0 4 20
74 0 0 10000000 0 43 20
75 0 0 10000000 0 47 10
76 0 0 10000000 0 36 10
77 0 0 10000000 0 31 30
78 0 0 10000000 0 4 20
79 0 0 10000000 0 9 20
80 0 0 10000000 0 31 30
81 0 0 10000000 0 12 10
82 0 0 10000000 0 43 19
83 0 0 10000000 0 17 24
84 0 0 10000000 0 3 27
85 0 0 10000000 0 8 20
86 0 0 10000000 0 27 13
87 0 0 10000000 0 17 14
88 0 0 10000000 0 15 21
89 0 0 10000000 0 12 30
90 0 0 10000000 0 47 10
91 0 0 10000000 0 17 10
92 0 0 10000000 0 14 20
93 0 0 10000000 0 9 30
94 0 0 10000000 0 45 10
95 0 0 10000000 0 41 10
96 0 0 10000000 0 43 10
97 0 0 10000000 0 31 10
98 0 0 10000000 0 19 20
99 0 0 10000000 0 40 30
100 0 0 10000000 0 22 18
101 0 0 10000000 0 15 21
102 0 0 10000000 0 12 16
103 0 0 10000000 0 43 10
104 0 0 10000000 0 17 1
105 0 0 10000000 0 41 25
106 0 0 10000000 0 29 23
107 0 0 10000000 0 19 16
108 0 0 10000000 0 40 18
109 0 0 10000000 0 30 8
110 0 0 10000000 0 2 20
111 0 0 10000000 0 35 10
112 0 0 10000000 0 19 10
113 0 0 10000000 0 44 10
114 0 0 10000000 0 44 10
115 0 0 10000000 0 21 30
116 0 0 10000000 0 14 21
117 0 0 10000000 0 6 10
118 0 0 10000000 0 12 10
119 0 0 10000000 0 49 17
120 0 0 10000000 0 37 29
121 0 0 10000000 0 1 16
122 0 0 10000000 0 18 18
123 0 0 10000000 0 7 11
124 0 0 10000000 0 28 30
125 0 0 10000000 0 2 30
126 0 0 10000000 0 18 17
127 0 0 10000000 0 13 20
128 0 0 10000000 0 20 24
129 0 0 10000000 0 3 10
130 0 0 10000000 0 42 29
131 0 0 10000000 0 7 10
132 0 0 10000000 0 30 25
133 0 0 10000000 0 36 10
134 0 0 10000000 0 35 6
135 0 0 10000000 0 3 17
136 0 0 10000000 0 9 10
137 0 0 10000000 0 27 26
138 0 0 10000000 0 33 24
139 0 0 10000000 0 14 30
140 0 0 10000000 0 44 10
141 0 0 10000000 0 30 20
142 0 0 10000000 0 27 20
143 0 0 10000000 0 1 10
144 0 0 10000000 0 46 20
145 0 0 10000000 0 41 30
146 0 0 10000000 0 47 20
147 0 0 10000000 0 39 20
148 0 0 10000000 0 5 10
149 0 0 10000000 0 40 10
150 0 0 10000000 0 25 10
151 0 0 10000000 0 24 20
152 0 0 10000000 0 14 22
153 0 0 10000000 0 41 22
154 0 0 10000000 0 23 20
155 0 0 10000000 0 38 26
156 0 0 10000000 0 24 15
157 0 0 10000000 0 30 20
158 0 0 10000000 0 48 10
159 0 0 10000000 0 19 30
160 0 0 10000000 0 2 30
161 0 0 10000000 0 34 3
162 0 0 10000000 0 49 15
163 0 0 10000000 0 44 10
164 0 0 10000000 0 31 13
165 0 0 10000000 0 38 11
166 0 0 10000000 0 18 21
167 0 0 10000000 0 18 20
168 0 0 10000000 0 1 8
169 0 0 10000000 0 10 15
170 0 0 10000000 0 17 10
171 0 0 10000000 0 26 20
172 0 0 10000000 0 48 10
173 0 0 10000000 0 30 20
174 0 0 10000000 0 40 22
175 0 0 10000000 0 14 30
176 0 0 10000000 0 25 10
177 0 0 10000000 0 6 15
178 0 0 10000000 0 41 20
179 0 0 10000000 0 10 10
180 0 0 10000000 0 33 13
181 0 0 10000000 0 48 20
182 0 0 10000000 0 29 19
183 0 0 10000000 0 4 20
184 0 0 10000000 0 12 19
185 0 0 10000000 0 8 27
186 0 0 10000000 0 22 14
187 0 0 10000000 0 9 20
188 0 0 10000000 0 12 23
189 0 0 10000000 0 40 14
190 0 0 10000000 0 41 6
191 0 0 10000000 0 41 20
192 0 0 10000000 0 4 7
193 0 0 10000000 0 45 14
194 0 0 10000000 0 17 40
195 0 0 10000000 0 28 13
196 0 0 10000000 0 32 16
197 0 0 10000000 0 44 20
198 0 0 10000000 0 6 20
199 0 0 10000000 0 7 20
200 0 0 10000000 0 1 20
201 0 0 10000000 0 23 20
202 0 0 10000000 0 17 12
203 0 0 10000000 0 32 11
204 0 0 10000000 0 48 11
205 0 0 10000000 0 1 20
206 0 0 10000000 0 19 3
207 0 0 10000000 0 50 43
208 0 0 10000000 0 50 11
209 0 0 10000000 0 4 23
210 0 0 10000000 0 17 15
211 0 0 10000000 0 24 27
212 0 0 10000000 0 27 20
213 0 0 10000000 0 16 20
214 0 0 10000000 0 24 20
215 0 0 10000000 0 38 21
216 0 0 10000000 0 6 10
217 0 0 10000000 0 17 17
218 0 0 10000000 0 1 3
219 0 0 10000000 0 46 23
220 0 0 10000000 0 47 10
221 0 0 10000000 0 3 25
222 0 0 10000000 0 17 24
223 0 0 10000000 0 22 24
224 0 0 10000000 0 23 9
225 0 0 10000000 0 18 10
226 0 0 10000000 0 24 20
227 0 0 10000000 0 42 21
228 0 0 10000000 0 9 50
229 0 0 10000000 0 28 16
230 0 0 10000000 0 33 1
231 0 0 10000000 0 29 13
232 0 0 10000000 0 23 20
233 0 0 10000000 0 36 20
234 0 0 10000000 0 44 11
235 0 0 10000000 0 36 10
236 0 0 10000000 0 34 16
237 0 0 10000000 0 38 20
238 0 0 10000000 0 2 19
239 0 0 10000000 0 1 20
240 0 0 10000000 0 47 10
241 0 0 10000000 0 9 30
242 0 0 10000000 0 14 24
243 0 0 10000000 0 29 20
244 0 0 10000000 0 37 10
245 0 0 10000000 0 29 20
246 0 0 10000000 0 2 9
247 0 0 10000000 0 18 15
248 0 0 10000000 0 26 10
249 0 0 10000000 0 17 24
250 0 0 10000000 0 24 20
251 0 0 10000000 0 7 10
252 0 0 10000000 0 31 22
253 0 0 10000000 0 12 20
254 0 0 10000000 0 10 13
255 0 0 10000000 0 27 10
256 0 0 10000000 0 39 18
257 0 0 10000000 0 46 30
258 0 0 10000000 0 48 20
259 0 0 10000000 0 20 30
260 0 0 10000000 0 7 20
261 0 0 10000000 0 11 20
262 0 0 10000000 0 19 30
263 0 0 10000000 0 35 27
264 0 0 10000000 0 40 17
265 0 0 10000000 0 1 20
266 0 0 10000000 0 36 20
267 0 0 10000000 0 21 20
268 0 0 10000000 0 40 20
269 0 0 10000000 0 7 20
270 0 0 10000000 0 44 10
271 0 0 10000000 0 24 10
272 0 0 10000000 0 24 8
273 0 0 10000000 0 6 10
274 0 0 10000000 0 23 13
275 0 0 10000000 0 23 14
276 0 0 10000000 0 28 10
277 0 0 10000000 0 19 30
278 0 0 10000000 0 39 19
279 0 0 10000000 0 30 19
280 0 0 10000000 0 11 17
281 0 0 10000000 0 41 10
282 0 0 10000000 0 29 10
283 0 0 10000000 0 27 20
284 0 0 10000000 0 7 40
285 0 0 10000000 0 33 21
286 0 0 10000000 0 18 19
287 0 0 10000000 0 33 10
288 0 0 10000000 0 13 20
289 0 0 10000000 0 30 10
290 0 0 10000000 0 18 10
291 0 0 10000000 0 2 10
292 0 0 10000000 0 41 10
293 0 0 10000000 0 11 24
294 0 0 10000000 0 25 20
295 0 0 10000000 0 16 24
296 0 0 10000000 0 31 20
297 0 0 10000000 0 9 20
298 0 0 10000000 0 8 10
299 0 0 10000000 0 49 20
300 0 0 10000000 0 46 26
301 0 0 10000000 0 47 28
302 0 0 10000000 0 9 14
303 0 0 10000000 0 44 25
304 0 0 10000000 0 22 10
305 0 0 10000000 0 38 20
306 0 0 10000000 0 37 20
307 0 0 10000000 0 11 5
308 0 0 10000000 0 39 10
309 0 0 10000000 0 15 30
310 0 0 10000000 0 2 23
311 0 0 10000000 0 48 32
312 0 0 10000000 0 5 24
313 0 0 10000000 0 8 27
314 0 0 10000000 0 30 33
315 0 0 10000000 0 18 9
316 0 0 10000000 0 13 19
317 0 0 10000000 0 4 8
318 0 0 10000000 0 50 30
319 0 0 10000000 0 34 21
320 0 0 10000000 0 40 20
321 0 0 10000000 0 33 14
322 0 0 10000000 0 14 10
323 0 0 10000000 0 31 22
324 0 0 10000000 0 45 28
325 0 0 10000000 0 43 20
326 0 0 10000000 0 48 20
327 0 0 10000000 0 7 19
328 0 0 10000000 0 31 20
329 0 0 10000000 0 32 20
330 0 0 10000000 0 49 11
331 0 0 10000000 0 10 27
332 0 0 10000000 0 26 20
333 0 0 10000000 0 21 17
334 0 0 10000000 0 27 17
335 0 0 10000000 0 1 30
336 0 0 10000000 0 11 18
337 0 0 10000000 0 11 4
338 0 0 10000000 0 49 8
339 0 0 10000000 0 50 26
340 0 0 10000000 0 26 13
341 0 0 10000000 0 45 10
342 0 0 10000000 0 45 30
343 0 0 10000000 0 38 10
344 0 0 10000000 0 11 10
345 0 0 10000000 0 23 21
346 0 0 10000000 0 16 10
347 0 0 10000000 0 25 10
348 0 0 10000000 0 34 30
349 0 0 10000000 0 35 39
350 0 0 10000000 0 30 10
351 0 0 10000000 0 44 10
352 0 0 10000000 0 46 10
353 0 0 10000000 0 26 20
354 0 0 10000000 0 16 20
355 0 0 10000000 0 3 39
356 0 0 10000000 0 23 28
357 0 0 10000000 0 21 30
358 0 0 10000000 0 25 20
359 0 0 10000000 0 32 23
360 0 0 10000000 0 34 12
361 0 0 10000000 0 31 18
362 0 0 10000000 0 23 10
363 0 0 10000000 0 26 10
364 0 0 10000000 0 47 20
365 0 0 10000000 0 14 10
366 0 0 10000000 0 42 10
367 0 0 10000000 0 3 20
368 0 0 10000000 0 48 20
369 0 0 10000000 0 41 20
370 0 0 10000000 0 2 13
371 0 0 10000000 0 2 19
372 0 0 10000000 0 16 12
373 0 0 10000000 0 32 7
374 0 0 10000000 0 13 10
375 0 0 10000000 0 9 20
376 0 0 10000000 0 38 20
377 0 0 10000000 0 25 30
378 0 0 10000000 0 3 6
379 0 0 10000000 0 20 20
380 0 0 10000000 0 48 12
381 0 0 10000000 0 12 46
382 0 0 10000000 0 44 27
383 0 0 10000000 0 39 26
384 0 0 10000000 0 37 20
385 0 0 10000000 0 43 26
386 0 0 10000000 0 6 30
387 0 0 10000000 0 21 26
388 0 0 10000000 0 49 11
389 0 0 10000000 0 6 15
390 0 0 10000000 0 29 2
391 0 0 10000000 0 7 20
392 0 0 10000000 0 40 20
393 0 0 10000000 0 50 20
394 0 0 10000000 0 22 10
395 0 0 10000000 0 44 20
396 0 0 10000000 0 22 20
397 0 0 10000000 0 33 20
398 0 0 10000000 0 8 20
399 0 0 10000000 0 22 23
400 0 0 10000000 0 17 21
401 0 0 10000000 0 1 10
DEPOT_SECTION
1 
-1
EOF
